benchmark/results/graph__15-1000-0.10-02_7/error_log/graph__15-1000-0.10-02_7_Quinton_Benders_primal_sub_ERRORLOG.lp
\ This file has been generated by DOcplex
\ ENCODING=ISO-8859-1
\Problem name: Quinton Benders_primal_sub

Maximize
 obj: tau
Subject To
 c1: tau <= 0.001466275660
 c2: y_a0_proc_0 + y_a0_proc_1 - tau = 0
 c3: y_a0_proc_0 <= 1
 c4: y_a0_proc_1 <= 0
 c5: tau <= 0.000980392157
 c6: y_a1_proc_0 + y_a1_proc_1 - tau = 0
 c7: y_a1_proc_0 <= 0
 c8: y_a1_proc_1 <= 1
 c9: tau <= 0.001579778831
 c10: y_a2_proc_0 - tau = 0
 c11: y_a2_proc_0 <= 1
 c12: tau <= 0.001047120419
 c13: y_a3_proc_1 - tau = 0
 c14: y_a3_proc_1 <= 1
 c15: tau <= 0.001321003963
 c16: y_a4_proc_0 + y_a4_proc_1 - tau = 0
 c17: y_a4_proc_0 <= 0
 c18: y_a4_proc_1 <= 1
 c19: tau <= 0.002898550725
 c20: y_a5_proc_0 + y_a5_proc_1 - tau = 0
 c21: y_a5_proc_0 <= 0
 c22: y_a5_proc_1 <= 1
 c23: tau <= 0.000843170320
 c24: y_a6_proc_1 - tau = 0
 c25: y_a6_proc_1 <= 1
 c26: tau <= 0.001180637544
 c27: y_a7_proc_0 + y_a7_proc_1 - tau = 0
 c28: y_a7_proc_0 <= 1
 c29: y_a7_proc_1 <= 0
 c30: tau <= 0.001101321586
 c31: y_a8_proc_0 + y_a8_proc_1 - tau = 0
 c32: y_a8_proc_0 <= 1
 c33: y_a8_proc_1 <= 0
 c34: tau <= 0.000992063492
 c35: y_a9_proc_0 + y_a9_proc_1 - tau = 0
 c36: y_a9_proc_0 <= 0
 c37: y_a9_proc_1 <= 1
 c38: tau <= 0.001076426265
 c39: y_a10_proc_0 + y_a10_proc_1 - tau = 0
 c40: y_a10_proc_0 <= 0
 c41: y_a10_proc_1 <= 1
 c42: tau <= 0.000770416025
 c43: y_a11_proc_0 + y_a11_proc_1 - tau = 0
 c44: y_a11_proc_0 <= 1
 c45: y_a11_proc_1 <= 0
 c46: tau <= 0.001144164760
 c47: y_a12_proc_0 - tau = 0
 c48: y_a12_proc_0 <= 1
 c49: tau <= 0.001001001001
 c50: y_a13_proc_0 + y_a13_proc_1 - tau = 0
 c51: y_a13_proc_0 <= 0
 c52: y_a13_proc_1 <= 1
 c53: tau <= 0.001449275362
 c54: y_a14_proc_0 + y_a14_proc_1 - tau = 0
 c55: y_a14_proc_0 <= 0
 c56: y_a14_proc_1 <= 1
 c57: u_a1 - u_a0 - 682 y_a0_proc_0 - 910 y_a0_proc_1 >= 0
 c58: u_a0 - u_a2 - 633 y_a2_proc_0 >= -1
 c59: u_a2 - u_a3 - 955 y_a3_proc_1 >= 0
 c60: u_a2 - u_a4 - 1073 y_a4_proc_0 - 757 y_a4_proc_1 >= 0
 c61: u_a5 - u_a4 - 1073 y_a4_proc_0 - 757 y_a4_proc_1 >= 0
 c62: u_a4 - u_a6 - 1186 y_a6_proc_1 >= 0
 c63: u_a7 - u_a1 - 820 y_a1_proc_0 - 1020 y_a1_proc_1 >= 0
 c64: u_a0 - u_a8 - 908 y_a8_proc_0 - 937 y_a8_proc_1 >= -1
 c65: u_a7 - u_a9 - 835 y_a9_proc_0 - 1008 y_a9_proc_1 >= 0
 c66: u_a10 - u_a0 - 682 y_a0_proc_0 - 910 y_a0_proc_1 >= 0
 c67: u_a11 - u_a7 - 847 y_a7_proc_0 - 518 y_a7_proc_1 >= 0
 c68: u_a8 - u_a12 - 874 y_a12_proc_0 >= 0
 c69: u_a13 - u_a1 - 820 y_a1_proc_0 - 1020 y_a1_proc_1 >= 0
 c70: u_a14 - u_a12 - 874 y_a12_proc_0 >= 0
 c71: u_a9 - u_a6 - 1186 y_a6_proc_1 >= 0
 c72: u_a3 - u_a14 - 1002 y_a14_proc_0 - 690 y_a14_proc_1 >= 0
 c73: u_a12 - u_a5 - 1276 y_a5_proc_0 - 345 y_a5_proc_1 >= 0
 c74: u_a4 - u_a13 - 1203 y_a13_proc_0 - 999 y_a13_proc_1 >= -1
 c75: - 1002 y_a14_proc_0 - 690 y_a14_proc_1 >= -1
 c76: u_a13 - u_a5 - 1276 y_a5_proc_0 - 345 y_a5_proc_1 >= 0
 c77: u_a3 - u_a1 - 820 y_a1_proc_0 - 1020 y_a1_proc_1 >= 0
 c78: u_a5 - u_a13 - 1203 y_a13_proc_0 - 999 y_a13_proc_1 >= -1
 c79: u_a6 - u_a10 - 1167 y_a10_proc_0 - 929 y_a10_proc_1 >= 0
 c80: u_a1 - u_a0 - 682 y_a0_proc_0 >= -2596
 c81: u_a1 - u_a0 - 910 y_a0_proc_1 >= -2596
 c82: u_a0 - u_a1 - 820 y_a1_proc_0 >= -1
 c83: u_a0 - u_a1 - 1020 y_a1_proc_1 >= -1
 c84: u_a2 - u_a0 - 682 y_a0_proc_0 >= 0
 c85: u_a0 - u_a2 - 633 y_a2_proc_0 >= -1
 c86: u_a3 - u_a0 - 910 y_a0_proc_1 >= -2596
 c87: u_a0 - u_a3 - 955 y_a3_proc_1 >= -1
 c88: u_a4 - u_a0 - 682 y_a0_proc_0 >= -2596
 c89: u_a4 - u_a0 - 910 y_a0_proc_1 >= -2596
 c90: u_a0 - u_a4 - 1073 y_a4_proc_0 >= -1
 c91: u_a0 - u_a4 - 757 y_a4_proc_1 >= -1
 c92: u_a5 - u_a0 - 682 y_a0_proc_0 >= -2596
 c93: u_a5 - u_a0 - 910 y_a0_proc_1 >= -2596
 c94: u_a0 - u_a5 - 1276 y_a5_proc_0 >= -1
 c95: u_a0 - u_a5 - 345 y_a5_proc_1 >= -1
 c96: u_a6 - u_a0 - 910 y_a0_proc_1 >= -2596
 c97: u_a0 - u_a6 - 1186 y_a6_proc_1 >= -1
 c98: u_a7 - u_a0 - 682 y_a0_proc_0 >= 1
 c99: u_a7 - u_a0 - 910 y_a0_proc_1 >= -2595
 c100: u_a0 - u_a7 - 847 y_a7_proc_0 >= -2
 c101: u_a0 - u_a7 - 518 y_a7_proc_1 >= -2598
 c102: u_a8 - u_a0 - 682 y_a0_proc_0 >= 0
 c103: u_a8 - u_a0 - 910 y_a0_proc_1 >= -2596
 c104: u_a0 - u_a8 - 908 y_a8_proc_0 >= -1
 c105: u_a0 - u_a8 - 937 y_a8_proc_1 >= -2597
 c106: u_a9 - u_a0 - 682 y_a0_proc_0 >= -2596
 c107: u_a9 - u_a0 - 910 y_a0_proc_1 >= -2596
 c108: u_a0 - u_a9 - 835 y_a9_proc_0 >= -1
 c109: u_a0 - u_a9 - 1008 y_a9_proc_1 >= -1
 c110: u_a10 - u_a0 - 682 y_a0_proc_0 >= -2596
 c111: u_a10 - u_a0 - 910 y_a0_proc_1 >= -2596
 c112: u_a0 - u_a10 - 1167 y_a10_proc_0 >= -1
 c113: u_a0 - u_a10 - 929 y_a10_proc_1 >= -1
 c114: u_a11 - u_a0 - 682 y_a0_proc_0 >= 1919
 c115: u_a11 - u_a0 - 910 y_a0_proc_1 >= -677
 c116: u_a0 - u_a11 - 1298 y_a11_proc_0 >= -1920
 c117: u_a0 - u_a11 - 1247 y_a11_proc_1 >= -4516
 c118: u_a12 - u_a0 - 682 y_a0_proc_0 >= 0
 c119: u_a0 - u_a12 - 874 y_a12_proc_0 >= -1
 c120: u_a13 - u_a0 - 682 y_a0_proc_0 >= 0
 c121: u_a13 - u_a0 - 910 y_a0_proc_1 >= 0
 c122: u_a0 - u_a13 - 1203 y_a13_proc_0 >= -2597
 c123: u_a0 - u_a13 - 999 y_a13_proc_1 >= -2597
 c124: u_a14 - u_a0 - 682 y_a0_proc_0 >= -2596
 c125: u_a14 - u_a0 - 910 y_a0_proc_1 >= -2596
 c126: u_a0 - u_a14 - 1002 y_a14_proc_0 >= -1
 c127: u_a0 - u_a14 - 690 y_a14_proc_1 >= -1
 c128: u_a2 - u_a1 - 820 y_a1_proc_0 >= -2596
 c129: u_a1 - u_a2 - 633 y_a2_proc_0 >= -1
 c130: u_a3 - u_a1 - 1020 y_a1_proc_1 >= 0
 c131: u_a1 - u_a3 - 955 y_a3_proc_1 >= -1
 c132: u_a4 - u_a1 - 820 y_a1_proc_0 >= -2597
 c133: u_a4 - u_a1 - 1020 y_a1_proc_1 >= -1
 c134: u_a1 - u_a4 - 1073 y_a4_proc_0 >= -2596
 c135: u_a1 - u_a4 - 757 y_a4_proc_1 >= 0
 c136: u_a5 - u_a1 - 820 y_a1_proc_0 >= -2597
 c137: u_a5 - u_a1 - 1020 y_a1_proc_1 >= -1
 c138: u_a1 - u_a5 - 1276 y_a5_proc_0 >= -2596
 c139: u_a1 - u_a5 - 345 y_a5_proc_1 >= 0
 c140: u_a6 - u_a1 - 1020 y_a1_proc_1 >= -1
 c141: u_a1 - u_a6 - 1186 y_a6_proc_1 >= 0
 c142: u_a7 - u_a1 - 820 y_a1_proc_0 >= -2334
 c143: u_a7 - u_a1 - 1020 y_a1_proc_1 >= -2334
 c144: u_a1 - u_a7 - 847 y_a7_proc_0 >= -263
 c145: u_a1 - u_a7 - 518 y_a7_proc_1 >= -263
 c146: u_a8 - u_a1 - 820 y_a1_proc_0 >= -2596
 c147: u_a8 - u_a1 - 1020 y_a1_proc_1 >= -2596
 c148: u_a1 - u_a8 - 908 y_a8_proc_0 >= -1
 c149: u_a1 - u_a8 - 937 y_a8_proc_1 >= -1
 c150: u_a9 - u_a1 - 820 y_a1_proc_0 >= -2597
 c151: u_a9 - u_a1 - 1020 y_a1_proc_1 >= -1
 c152: u_a1 - u_a9 - 835 y_a9_proc_0 >= -2596
 c153: u_a1 - u_a9 - 1008 y_a9_proc_1 >= 0
 c154: u_a10 - u_a1 - 820 y_a1_proc_0 >= -2597
 c155: u_a10 - u_a1 - 1020 y_a1_proc_1 >= -1
 c156: u_a1 - u_a10 - 1167 y_a10_proc_0 >= -2596
 c157: u_a1 - u_a10 - 929 y_a10_proc_1 >= 0
 c158: u_a11 - u_a1 - 820 y_a1_proc_0 >= -677
 c159: u_a11 - u_a1 - 1020 y_a1_proc_1 >= -677
 c160: u_a1 - u_a11 - 1298 y_a11_proc_0 >= -1920
 c161: u_a1 - u_a11 - 1247 y_a11_proc_1 >= -1920
 c162: u_a12 - u_a1 - 820 y_a1_proc_0 >= -2596
 c163: u_a1 - u_a12 - 874 y_a12_proc_0 >= -1
 c164: u_a13 - u_a1 - 820 y_a1_proc_0 >= -2596
 c165: u_a13 - u_a1 - 1020 y_a1_proc_1 >= 0
 c166: u_a1 - u_a13 - 1203 y_a13_proc_0 >= -2597
 c167: u_a1 - u_a13 - 999 y_a13_proc_1 >= -1
 c168: u_a14 - u_a1 - 820 y_a1_proc_0 >= -2596
 c169: u_a14 - u_a1 - 1020 y_a1_proc_1 >= 0
 c170: u_a1 - u_a14 - 1002 y_a14_proc_0 >= -2597
 c171: u_a1 - u_a14 - 690 y_a14_proc_1 >= -1
 c172: u_a4 - u_a2 - 633 y_a2_proc_0 >= -2597
 c173: u_a2 - u_a4 - 1073 y_a4_proc_0 >= 0
 c174: u_a5 - u_a2 - 633 y_a2_proc_0 >= -2597
 c175: u_a2 - u_a5 - 1276 y_a5_proc_0 >= 0
 c176: u_a7 - u_a2 - 633 y_a2_proc_0 >= 0
 c177: u_a2 - u_a7 - 847 y_a7_proc_0 >= -1
 c178: u_a8 - u_a2 - 633 y_a2_proc_0 >= -1
 c179: u_a2 - u_a8 - 908 y_a8_proc_0 >= 0
 c180: u_a9 - u_a2 - 633 y_a2_proc_0 >= -2597
 c181: u_a2 - u_a9 - 835 y_a9_proc_0 >= 0
 c182: u_a10 - u_a2 - 633 y_a2_proc_0 >= -2597
 c183: u_a2 - u_a10 - 1167 y_a10_proc_0 >= 0
 c184: u_a11 - u_a2 - 633 y_a2_proc_0 >= 1918
 c185: u_a2 - u_a11 - 1298 y_a11_proc_0 >= -1919
 c186: u_a12 - u_a2 - 633 y_a2_proc_0 >= -1
 c187: u_a2 - u_a12 - 874 y_a12_proc_0 >= 0
 c188: u_a13 - u_a2 - 633 y_a2_proc_0 >= -2597
 c189: u_a2 - u_a13 - 1203 y_a13_proc_0 >= 0
 c190: u_a14 - u_a2 - 633 y_a2_proc_0 >= -2597
 c191: u_a2 - u_a14 - 1002 y_a14_proc_0 >= 0
 c192: u_a4 - u_a3 - 955 y_a3_proc_1 >= -1
 c193: u_a3 - u_a4 - 757 y_a4_proc_1 >= 0
 c194: u_a5 - u_a3 - 955 y_a3_proc_1 >= -1
 c195: u_a3 - u_a5 - 345 y_a5_proc_1 >= 0
 c196: u_a6 - u_a3 - 955 y_a3_proc_1 >= -1
 c197: u_a3 - u_a6 - 1186 y_a6_proc_1 >= 0
 c198: u_a7 - u_a3 - 955 y_a3_proc_1 >= -2596
 c199: u_a3 - u_a7 - 518 y_a7_proc_1 >= -1
 c200: u_a8 - u_a3 - 955 y_a3_proc_1 >= -2597
 c201: u_a3 - u_a8 - 937 y_a8_proc_1 >= 0
 c202: u_a9 - u_a3 - 955 y_a3_proc_1 >= -1
 c203: u_a3 - u_a9 - 1008 y_a9_proc_1 >= 0
 c204: u_a10 - u_a3 - 955 y_a3_proc_1 >= -1
 c205: u_a3 - u_a10 - 929 y_a10_proc_1 >= 0
 c206: u_a11 - u_a3 - 955 y_a3_proc_1 >= -677
 c207: u_a3 - u_a11 - 1247 y_a11_proc_1 >= -1920
 c208: u_a13 - u_a3 - 955 y_a3_proc_1 >= -1
 c209: u_a3 - u_a13 - 999 y_a13_proc_1 >= 0
 c210: u_a14 - u_a3 - 955 y_a3_proc_1 >= -1
 c211: u_a3 - u_a14 - 690 y_a14_proc_1 >= 0
 c212: u_a5 - u_a4 - 1073 y_a4_proc_0 >= -2596
 c213: u_a5 - u_a4 - 757 y_a4_proc_1 >= 0
 c214: u_a4 - u_a5 - 1276 y_a5_proc_0 >= -2597
 c215: u_a4 - u_a5 - 345 y_a5_proc_1 >= -1
 c216: u_a6 - u_a4 - 757 y_a4_proc_1 >= -1
 c217: u_a4 - u_a6 - 1186 y_a6_proc_1 >= 0
 c218: u_a7 - u_a4 - 1073 y_a4_proc_0 >= -2596
 c219: u_a7 - u_a4 - 757 y_a4_proc_1 >= -2596
 c220: u_a4 - u_a7 - 847 y_a7_proc_0 >= -1
 c221: u_a4 - u_a7 - 518 y_a7_proc_1 >= -1
 c222: u_a8 - u_a4 - 1073 y_a4_proc_0 >= -2596
 c223: u_a8 - u_a4 - 757 y_a4_proc_1 >= -2596
 c224: u_a4 - u_a8 - 908 y_a8_proc_0 >= -1
 c225: u_a4 - u_a8 - 937 y_a8_proc_1 >= -1
 c226: u_a9 - u_a4 - 1073 y_a4_proc_0 >= -2596
 c227: u_a9 - u_a4 - 757 y_a4_proc_1 >= 0
 c228: u_a4 - u_a9 - 835 y_a9_proc_0 >= -2597
 c229: u_a4 - u_a9 - 1008 y_a9_proc_1 >= -1
 c230: u_a10 - u_a4 - 1073 y_a4_proc_0 >= -2597
 c231: u_a10 - u_a4 - 757 y_a4_proc_1 >= -1
 c232: u_a4 - u_a10 - 1167 y_a10_proc_0 >= -2596
 c233: u_a4 - u_a10 - 929 y_a10_proc_1 >= 0
 c234: u_a11 - u_a4 - 1073 y_a4_proc_0 >= -677
 c235: u_a11 - u_a4 - 757 y_a4_proc_1 >= -677
 c236: u_a4 - u_a11 - 1298 y_a11_proc_0 >= -1920
 c237: u_a4 - u_a11 - 1247 y_a11_proc_1 >= -1920
 c238: u_a12 - u_a4 - 1073 y_a4_proc_0 >= -2596
 c239: u_a4 - u_a12 - 874 y_a12_proc_0 >= -1
 c240: u_a13 - u_a4 - 1073 y_a4_proc_0 >= -2596
 c241: u_a13 - u_a4 - 757 y_a4_proc_1 >= 0
 c242: u_a4 - u_a13 - 1203 y_a13_proc_0 >= -2597
 c243: u_a4 - u_a13 - 999 y_a13_proc_1 >= -1
 c244: u_a14 - u_a4 - 1073 y_a4_proc_0 >= -2596
 c245: u_a14 - u_a4 - 757 y_a4_proc_1 >= 0
 c246: u_a4 - u_a14 - 1002 y_a14_proc_0 >= -2597
 c247: u_a4 - u_a14 - 690 y_a14_proc_1 >= -1
 c248: u_a6 - u_a5 - 345 y_a5_proc_1 >= -1
 c249: u_a5 - u_a6 - 1186 y_a6_proc_1 >= 0
 c250: u_a7 - u_a5 - 1276 y_a5_proc_0 >= -2596
 c251: u_a7 - u_a5 - 345 y_a5_proc_1 >= -2596
 c252: u_a5 - u_a7 - 847 y_a7_proc_0 >= -1
 c253: u_a5 - u_a7 - 518 y_a7_proc_1 >= -1
 c254: u_a8 - u_a5 - 1276 y_a5_proc_0 >= -2596
 c255: u_a8 - u_a5 - 345 y_a5_proc_1 >= -2596
 c256: u_a5 - u_a8 - 908 y_a8_proc_0 >= -1
 c257: u_a5 - u_a8 - 937 y_a8_proc_1 >= -1
 c258: u_a9 - u_a5 - 1276 y_a5_proc_0 >= -2597
 c259: u_a9 - u_a5 - 345 y_a5_proc_1 >= -1
 c260: u_a5 - u_a9 - 835 y_a9_proc_0 >= -2596
 c261: u_a5 - u_a9 - 1008 y_a9_proc_1 >= 0
 c262: u_a10 - u_a5 - 1276 y_a5_proc_0 >= -2597
 c263: u_a10 - u_a5 - 345 y_a5_proc_1 >= -1
 c264: u_a5 - u_a10 - 1167 y_a10_proc_0 >= -2596
 c265: u_a5 - u_a10 - 929 y_a10_proc_1 >= 0
 c266: u_a11 - u_a5 - 1276 y_a5_proc_0 >= -677
 c267: u_a11 - u_a5 - 345 y_a5_proc_1 >= -677
 c268: u_a5 - u_a11 - 1298 y_a11_proc_0 >= -1920
 c269: u_a5 - u_a11 - 1247 y_a11_proc_1 >= -1920
 c270: u_a12 - u_a5 - 1276 y_a5_proc_0 >= -2596
 c271: u_a5 - u_a12 - 874 y_a12_proc_0 >= -1
 c272: u_a13 - u_a5 - 1276 y_a5_proc_0 >= -2596
 c273: u_a13 - u_a5 - 345 y_a5_proc_1 >= 0
 c274: u_a5 - u_a13 - 1203 y_a13_proc_0 >= -2597
 c275: u_a5 - u_a13 - 999 y_a13_proc_1 >= -1
 c276: u_a14 - u_a5 - 1276 y_a5_proc_0 >= -2596
 c277: u_a14 - u_a5 - 345 y_a5_proc_1 >= 0
 c278: u_a5 - u_a14 - 1002 y_a14_proc_0 >= -2597
 c279: u_a5 - u_a14 - 690 y_a14_proc_1 >= -1
 c280: u_a7 - u_a6 - 1186 y_a6_proc_1 >= -2596
 c281: u_a6 - u_a7 - 518 y_a7_proc_1 >= -1
 c282: u_a8 - u_a6 - 1186 y_a6_proc_1 >= -2596
 c283: u_a6 - u_a8 - 937 y_a8_proc_1 >= -1
 c284: u_a9 - u_a6 - 1186 y_a6_proc_1 >= 0
 c285: u_a6 - u_a9 - 1008 y_a9_proc_1 >= -1
 c286: u_a10 - u_a6 - 1186 y_a6_proc_1 >= -1
 c287: u_a6 - u_a10 - 929 y_a10_proc_1 >= 0
 c288: u_a11 - u_a6 - 1186 y_a6_proc_1 >= -677
 c289: u_a6 - u_a11 - 1247 y_a11_proc_1 >= -1920
 c290: u_a13 - u_a6 - 1186 y_a6_proc_1 >= 0
 c291: u_a6 - u_a13 - 999 y_a13_proc_1 >= -1
 c292: u_a14 - u_a6 - 1186 y_a6_proc_1 >= 0
 c293: u_a6 - u_a14 - 690 y_a14_proc_1 >= -1
 c294: u_a8 - u_a7 - 847 y_a7_proc_0 >= -1
 c295: u_a8 - u_a7 - 518 y_a7_proc_1 >= -2597
 c296: u_a7 - u_a8 - 908 y_a8_proc_0 >= 0
 c297: u_a7 - u_a8 - 937 y_a8_proc_1 >= -2596
 c298: u_a9 - u_a7 - 847 y_a7_proc_0 >= -2454
 c299: u_a9 - u_a7 - 518 y_a7_proc_1 >= -2454
 c300: u_a7 - u_a9 - 835 y_a9_proc_0 >= -143
 c301: u_a7 - u_a9 - 1008 y_a9_proc_1 >= -143
 c302: u_a10 - u_a7 - 847 y_a7_proc_0 >= -2598
 c303: u_a10 - u_a7 - 518 y_a7_proc_1 >= -2598
 c304: u_a7 - u_a10 - 1167 y_a10_proc_0 >= 1
 c305: u_a7 - u_a10 - 929 y_a10_proc_1 >= 1
 c306: u_a11 - u_a7 - 847 y_a7_proc_0 >= 1918
 c307: u_a11 - u_a7 - 518 y_a7_proc_1 >= -678
 c308: u_a7 - u_a11 - 1298 y_a11_proc_0 >= -1919
 c309: u_a7 - u_a11 - 1247 y_a11_proc_1 >= -4515
 c310: u_a12 - u_a7 - 847 y_a7_proc_0 >= -1
 c311: u_a7 - u_a12 - 874 y_a12_proc_0 >= 0
 c312: u_a13 - u_a7 - 847 y_a7_proc_0 >= -2597
 c313: u_a13 - u_a7 - 518 y_a7_proc_1 >= -2597
 c314: u_a7 - u_a13 - 1203 y_a13_proc_0 >= 0
 c315: u_a7 - u_a13 - 999 y_a13_proc_1 >= 0
 c316: u_a14 - u_a7 - 847 y_a7_proc_0 >= -1
 c317: u_a14 - u_a7 - 518 y_a7_proc_1 >= -1
 c318: u_a7 - u_a14 - 1002 y_a14_proc_0 >= -2596
 c319: u_a7 - u_a14 - 690 y_a14_proc_1 >= -2596
 c320: u_a9 - u_a8 - 908 y_a8_proc_0 >= -1423
 c321: u_a9 - u_a8 - 937 y_a8_proc_1 >= -1423
 c322: u_a8 - u_a9 - 835 y_a9_proc_0 >= -1174
 c323: u_a8 - u_a9 - 1008 y_a9_proc_1 >= -1174
 c324: u_a10 - u_a8 - 908 y_a8_proc_0 >= -2597
 c325: u_a10 - u_a8 - 937 y_a8_proc_1 >= -2597
 c326: u_a8 - u_a10 - 1167 y_a10_proc_0 >= 0
 c327: u_a8 - u_a10 - 929 y_a10_proc_1 >= 0
 c328: u_a11 - u_a8 - 908 y_a8_proc_0 >= 1919
 c329: u_a11 - u_a8 - 937 y_a8_proc_1 >= -677
 c330: u_a8 - u_a11 - 1298 y_a11_proc_0 >= -1920
 c331: u_a8 - u_a11 - 1247 y_a11_proc_1 >= -4516
 c332: u_a12 - u_a8 - 908 y_a8_proc_0 >= -1
 c333: u_a8 - u_a12 - 874 y_a12_proc_0 >= 0
 c334: u_a13 - u_a8 - 908 y_a8_proc_0 >= -2597
 c335: u_a13 - u_a8 - 937 y_a8_proc_1 >= -2597
 c336: u_a8 - u_a13 - 1203 y_a13_proc_0 >= 0
 c337: u_a8 - u_a13 - 999 y_a13_proc_1 >= 0
 c338: u_a14 - u_a8 - 908 y_a8_proc_0 >= 0
 c339: u_a14 - u_a8 - 937 y_a8_proc_1 >= 0
 c340: u_a8 - u_a14 - 1002 y_a14_proc_0 >= -2597
 c341: u_a8 - u_a14 - 690 y_a14_proc_1 >= -2597
 c342: u_a10 - u_a9 - 835 y_a9_proc_0 >= -2597
 c343: u_a10 - u_a9 - 1008 y_a9_proc_1 >= -1
 c344: u_a9 - u_a10 - 1167 y_a10_proc_0 >= -2596
 c345: u_a9 - u_a10 - 929 y_a10_proc_1 >= 0
 c346: u_a11 - u_a9 - 835 y_a9_proc_0 >= -677
 c347: u_a11 - u_a9 - 1008 y_a9_proc_1 >= -677
 c348: u_a9 - u_a11 - 1298 y_a11_proc_0 >= -1920
 c349: u_a9 - u_a11 - 1247 y_a11_proc_1 >= -1920
 c350: u_a12 - u_a9 - 835 y_a9_proc_0 >= -2596
 c351: u_a9 - u_a12 - 874 y_a12_proc_0 >= -1
 c352: u_a13 - u_a9 - 835 y_a9_proc_0 >= -2596
 c353: u_a13 - u_a9 - 1008 y_a9_proc_1 >= 0
 c354: u_a9 - u_a13 - 1203 y_a13_proc_0 >= -2597
 c355: u_a9 - u_a13 - 999 y_a13_proc_1 >= -1
 c356: u_a14 - u_a9 - 835 y_a9_proc_0 >= -2596
 c357: u_a14 - u_a9 - 1008 y_a9_proc_1 >= 0
 c358: u_a9 - u_a14 - 1002 y_a14_proc_0 >= -2597
 c359: u_a9 - u_a14 - 690 y_a14_proc_1 >= -1
 c360: u_a11 - u_a10 - 1167 y_a10_proc_0 >= 1919
 c361: u_a11 - u_a10 - 929 y_a10_proc_1 >= 1919
 c362: u_a10 - u_a11 - 1298 y_a11_proc_0 >= -4516
 c363: u_a10 - u_a11 - 1247 y_a11_proc_1 >= -4516
 c364: u_a12 - u_a10 - 1167 y_a10_proc_0 >= -2596
 c365: u_a10 - u_a12 - 874 y_a12_proc_0 >= -1
 c366: u_a13 - u_a10 - 1167 y_a10_proc_0 >= -2596
 c367: u_a13 - u_a10 - 929 y_a10_proc_1 >= 0
 c368: u_a10 - u_a13 - 1203 y_a13_proc_0 >= -2597
 c369: u_a10 - u_a13 - 999 y_a13_proc_1 >= -1
 c370: u_a14 - u_a10 - 1167 y_a10_proc_0 >= -2596
 c371: u_a14 - u_a10 - 929 y_a10_proc_1 >= 0
 c372: u_a10 - u_a14 - 1002 y_a14_proc_0 >= -2597
 c373: u_a10 - u_a14 - 690 y_a14_proc_1 >= -1
 c374: u_a12 - u_a11 - 1298 y_a11_proc_0 >= -1920
 c375: u_a11 - u_a12 - 874 y_a12_proc_0 >= 1919
 c376: u_a13 - u_a11 - 1298 y_a11_proc_0 >= -4516
 c377: u_a13 - u_a11 - 1247 y_a11_proc_1 >= -4516
 c378: u_a11 - u_a13 - 1203 y_a13_proc_0 >= 1919
 c379: u_a11 - u_a13 - 999 y_a13_proc_1 >= 1919
 c380: u_a14 - u_a11 - 1298 y_a11_proc_0 >= -4516
 c381: u_a14 - u_a11 - 1247 y_a11_proc_1 >= -4516
 c382: u_a11 - u_a14 - 1002 y_a14_proc_0 >= 1919
 c383: u_a11 - u_a14 - 690 y_a14_proc_1 >= 1919
 c384: u_a13 - u_a12 - 874 y_a12_proc_0 >= -2597
 c385: u_a12 - u_a13 - 1203 y_a13_proc_0 >= 0
 c386: u_a14 - u_a12 - 874 y_a12_proc_0 >= -2596
 c387: u_a12 - u_a14 - 1002 y_a14_proc_0 >= -1
 c388: u_a14 - u_a13 - 1203 y_a13_proc_0 >= -2596
 c389: u_a14 - u_a13 - 999 y_a13_proc_1 >= 0
 c390: u_a13 - u_a14 - 1002 y_a14_proc_0 >= -2597
 c391: u_a13 - u_a14 - 690 y_a14_proc_1 >= -1

Bounds
End
